(set-logic QF_S)
(declare-fun var0 () Int)
(declare-fun var1 () Int)
(declare-fun var2 () Int)
(declare-fun var3 () String)
(declare-fun var4 () Int)
(declare-fun var5 () String)
(assert (not (str.in.re "@sbH})" re.allchar)))
(assert (> var0 87))
(assert (<= var1 var2))
(assert (>= (str.to.int (str.substr var3 var4 var2)) (str.to.int var5)))
(check-sat)